************************************************************************
file with basedata            : mf24_.bas
initial value random generator: 1999069829
************************************************************************
projects                      :  1
jobs (incl. supersource/sink ):  32
horizon                       :  227
RESOURCES
  - renewable                 :  2   R
  - nonrenewable              :  2   N
  - doubly constrained        :  0   D
************************************************************************
PROJECT INFORMATION:
pronr.  #jobs rel.date duedate tardcost  MPM-Time
    1     30      0       29        6       29
************************************************************************
PRECEDENCE RELATIONS:
jobnr.    #modes  #successors   successors
   1        1          3           2   3   4
   2        3          3           5   7  18
   3        3          3          14  19  20
   4        3          3          11  25  26
   5        3          3           6   8  10
   6        3          2          19  22
   7        3          2          11  28
   8        3          2           9  20
   9        3          2          17  24
  10        3          3          12  13  21
  11        3          1          15
  12        3          1          16
  13        3          1          14
  14        3          3          17  22  28
  15        3          2          17  19
  16        3          2          26  27
  17        3          1          23
  18        3          2          21  24
  19        3          1          21
  20        3          3          22  25  31
  21        3          2          23  29
  22        3          2          24  29
  23        3          2          27  31
  24        3          1          27
  25        3          2          29  30
  26        3          1          28
  27        3          1          30
  28        3          1          30
  29        3          1          32
  30        3          1          32
  31        3          1          32
  32        1          0        
************************************************************************
REQUESTS/DURATIONS:
jobnr. mode duration  R 1  R 2  N 1  N 2
------------------------------------------------------------------------
  1      1     0       0    0    0    0
  2      1     5       8    5    0    5
         2     7       6    5    0    5
         3     9       4    5    0    4
  3      1     1       4    5   10    0
         2     1       5    5    0    9
         3     4       4    2    0    8
  4      1     5       7    9    2    0
         2     8       6    7    0    5
         3    10       4    6    0    5
  5      1     4       3    3    0    8
         2     6       2    2    0    8
         3     7       2    2    0    7
  6      1     2       4    4    0    9
         2     4       4    3   10    0
         3     5       3    2   10    0
  7      1     2       9    7    0    5
         2     2       9    7    7    0
         3     8       9    5    0    7
  8      1     2       2    8    4    0
         2     4       2    7    0    7
         3     9       2    4    4    0
  9      1     4       2    6    0    7
         2     8       2    5    0    7
         3     9       1    3    3    0
 10      1     1       6    9    6    0
         2     7       4    8    0    3
         3     8       4    6    0    1
 11      1     3       6    7    0   10
         2     6       4    7    6    0
         3     9       4    4    0    5
 12      1     1       9    5    6    0
         2     3       8    4    0    9
         3     7       6    3    0    8
 13      1     3       6    3    2    0
         2     5       5    3    0    8
         3     8       3    3    0    4
 14      1     3       7    7    0    6
         2     7       7    6    3    0
         3     7       5    5    0    6
 15      1     7       8    7    4    0
         2    10       7    6    0    4
         3    10       7    5    4    0
 16      1     2       4    2   10    0
         2     2       4    3    8    0
         3     2       5    5    0    8
 17      1     1       5    5    9    0
         2     2       4    5    0    6
         3     7       1    5    9    0
 18      1     2      10    7    0    7
         2     2       7    8    0    5
         3     5       2    7    9    0
 19      1     4       7    8    0   10
         2     8       7    8    3    0
         3     9       5    5    0    6
 20      1     6       9    5    0    5
         2     9       7    3    3    0
         3    10       6    2    2    0
 21      1     3       9    9    0    4
         2     3       9    8    5    0
         3     8       4    8    2    0
 22      1     3       3   10    0    7
         2     3       3   10    8    0
         3     7       3    8    0    5
 23      1     2       6   10   10    0
         2     6       6    8    8    0
         3     9       6    4    7    0
 24      1     2       3    7    0    3
         2     6       3    4    0    1
         3     8       2    3    5    0
 25      1     2       7   10    0    5
         2     6       4   10    5    0
         3     9       3   10    1    0
 26      1     3      10   10    0    9
         2     7      10   10    7    0
         3    10      10    9    0    5
 27      1     2       7   10    0    7
         2     4       4    9    0    7
         3     6       1    6    0    7
 28      1     6       5    9    8    0
         2     7       4    8    0    4
         3     7       5    7    6    0
 29      1     2       7    9    0    3
         2     4       7    8    0    3
         3    10       6    8    8    0
 30      1     1       7    7    7    0
         2     7       3    6    0    7
         3     8       1    6    4    0
 31      1     1       9    6    8    0
         2     1       7    7    6    0
         3     2       5    5    0    9
 32      1     0       0    0    0    0
************************************************************************
RESOURCEAVAILABILITIES:
  R 1  R 2  N 1  N 2
   36   42  128  148
************************************************************************
